(set-logic HORN)
(declare-fun inv ((Array Int Int) Int Int) Bool)
(declare-fun fail () Bool)
(assert (forall ((a (Array Int Int)) (N Int)) (inv a (- N 1) N)))
(assert (forall ((a (Array Int Int)) (i Int) (a1 (Array Int Int)) (i1 Int) (N Int))
  (=> (and (inv a i N) (>= i 0) (= (store a i 1) a1) (= i1 (- i 1)))
      (inv a1 i1 N))))
(assert (forall ((i Int) (N Int) (a (Array Int Int)) (i1 Int))
  (let ((a!1 (and (inv a i N)
                  (< i 0)
                  (< 0 i1)
                  (< i1 N)
                  (not (= (select a i1) 1)))))
    (=> a!1 fail))))
(assert (not fail))
(check-sat)
